\ENCODING=ISO-8859-1
\Problem name: 

Minimize
 obj: 159.010376793918 y_0_1 + 178.74778418052 y_0_2 + 462.096805738379 y_0_3
      + 824.737866693575 y_1_2 + 949.930109491192 y_1_3
      + 727.454315835427 y_2_1 + 870.452466626317 y_2_3
      + 196.327083639884 y_3_1 + 754.726910234779 y_3_2
Subject To
 c1:  x_0_1 - x_1_2 - x_1_3 + x_2_1 + x_3_1  = 1
 c2:  x_0_2 + x_1_2 - x_2_1 - x_2_3 + x_3_2  = 1
 c3:  x_0_3 + x_1_3 + x_2_3 - x_3_1 - x_3_2  = 1
 c4:  y_0_1 + y_0_2 + y_0_3  = 1
 c5:  y_1_0 + y_1_2 + y_1_3  = 1
 c6:  y_2_0 + y_2_1 + y_2_3  = 1
 c7:  y_3_0 + y_3_1 + y_3_2  = 1
 c8:  y_1_0 + y_2_0 + y_3_0  = 1
 c9:  y_0_1 + y_2_1 + y_3_1  = 1
 c10: y_0_2 + y_1_2 + y_3_2  = 1
 c11: y_0_3 + y_1_3 + y_2_3  = 1
 c12: x_0_1 - 3 y_0_1 <= 0
 c13: x_0_2 - 3 y_0_2 <= 0
 c14: x_0_3 - 3 y_0_3 <= 0
 c15: x_1_2 - 3 y_1_2 <= 0
 c16: x_1_3 - 3 y_1_3 <= 0
 c17: x_2_1 - 3 y_2_1 <= 0
 c18: x_2_3 - 3 y_2_3 <= 0
 c19: x_3_1 - 3 y_3_1 <= 0
 c20: x_3_2 - 3 y_3_2 <= 0
Bounds
 0 <= x_0_1 <= 4
 0 <= x_0_2 <= 4
 0 <= x_0_3 <= 4
 0 <= x_1_2 <= 4
 0 <= x_1_3 <= 4
 0 <= x_2_1 <= 4
 0 <= x_2_3 <= 4
 0 <= x_3_1 <= 4
 0 <= x_3_2 <= 4
 0 <= y_0_1 <= 1
 0 <= y_0_2 <= 1
 0 <= y_0_3 <= 1
 0 <= y_1_0 <= 1
 0 <= y_1_2 <= 1
 0 <= y_1_3 <= 1
 0 <= y_2_0 <= 1
 0 <= y_2_1 <= 1
 0 <= y_2_3 <= 1
 0 <= y_3_0 <= 1
 0 <= y_3_1 <= 1
 0 <= y_3_2 <= 1
Binaries
 y_0_1  y_0_2  y_0_3  y_1_0  y_1_2  y_1_3  y_2_0  y_2_1  y_2_3  y_3_0  y_3_1 
 y_3_2 
End
